# Solution for model GasLib-40
# Objective value = 1.1652409539014791e+01
loadshed[innode_1] 0
loadshed[innode_2] 0
loadshed[innode_3] 0
loadshed[innode_4] 0
loadshed[innode_5] 0
loadshed[innode_6] 0
loadshed[innode_7] 0
loadshed[innode_8] 0
loadshed[source_1] -2.5197194778252041e-01
loadshed[source_2] -0.0783341160297959
loadshed[source_3] 4.0401337651230362e-01
loadshed[sink_1] 0
loadshed[sink_2] 0
loadshed[sink_3] 0
loadshed[sink_4] 0
loadshed[sink_5] 0
loadshed[sink_6] 0
loadshed[sink_7] 0
loadshed[sink_8] 0
loadshed[sink_9] 0
loadshed[sink_10] 0
loadshed[sink_11] 0
loadshed[sink_12] 7.1250402276778335e-01
loadshed[sink_13] 0
loadshed[sink_14] 0
loadshed[sink_15] 0
loadshed[sink_16] 0
loadshed[sink_17] 0
loadshed[sink_18] 0
loadshed[sink_19] 0
loadshed[sink_20] 0
loadshed[sink_21] 0
loadshed[sink_22] 0
loadshed[sink_23] 0
loadshed[sink_24] 0
loadshed[sink_25] 0
loadshed[sink_26] 0
loadshed[sink_27] 0
loadshed[sink_28] 0
loadshed[sink_29] 0
flow[source_1,sink_3] 1.9792459299492413e+02
flow[innode_1,sink_16] 1.6354166666666970e+01
flow[innode_6,sink_13] 2.0259475807670334e+01
flow[sink_13,sink_14] 3.9053091410036647e+00
flow[sink_14,sink_10] -1.2448857525663003e+01
flow[sink_25,sink_26] 1.7489693041138344e+02
flow[sink_26,sink_9] 1.3553509046098529e+02
flow[sink_9,sink_18] 1.1918092379431862e+02
flow[sink_26,sink_4] 2.3007673283730252e+01
flow[sink_4,sink_20] -1.6822618938317152e+01
flow[sink_18,sink_6] 1.0282675712765194e+02
flow[sink_25,innode_8] -1.6521625966158777e+02
flow[sink_6,sink_7] 5.3764257127651888e+01
flow[sink_6,sink_22] 3.2708333333333641e+01
flow[sink_7,sink_24] 3.7410090460985217e+01
flow[sink_22,sink_1] 1.6354166666666970e+01
flow[sink_24,sink_21] 2.1055923794318545e+01
flow[sink_21,sink_12] 4.7017571276518773e+00
flow[sink_7,sink_5] 0
flow[sink_5,sink_17] -1.6354166666667197e+01
flow[sink_17,sink_4] -2.3476125555380737e+01
flow[sink_17,sink_8] -9.2322077779531284e+00
flow[sink_3,sink_23] 16.3541666666697
flow[sink_8,sink_20] -2.5586374444619796e+01
flow[sink_25,sink_20] 58.7631600496035
flow[sink_25,sink_15] -1.0505747327373699e+02
flow[sink_15,sink_29] -67.126573317164
flow[sink_29,sink_28] 1.6354166666667879e+01
flow[sink_29,sink_2] 7.0639233289906329e+01
flow[sink_2,sink_15] 5.4285066623239658e+01
flow[sink_29,innode_7] -1.7047413994040488e+02
flow[innode_4,sink_19] 7.7865524192330071e+01
flow[sink_19,innode_3] 6.1511357525663470e+01
flow[innode_4,innode_5] 1.6354166666679703e+01
flow[sink_27,innode_5] -1.6354166666679703e+01
flow[sink_27,sink_19] 0
flow[sink_10,sink_11] 3.2708333333333641e+01
flow[sink_10,innode_2] 0
flow[sink_10,innode_3] -6.1511357525663470e+01
flow[innode_6,sink_25] -2.0259475807670334e+01
flow[sink_11,innode_1] 1.6354166666666970e+01
flow[sink_19,innode_2] 0
flow[source_3,innode_4] 9.4219690859009773e+01
flow[source_2,innode_7] 1.7047413994040488e+02
flow[sink_3,innode_8] 1.6521625966158777e+02
pressure[innode_1] 74.2959393793898
pressure[innode_2] 7.7858719212482271e+01
pressure[innode_3] 77.7225092766473
pressure[innode_4] 81.01325
pressure[innode_5] 8.1002000741808786e+01
pressure[innode_6] 7.3977503193864337e+01
pressure[innode_7] 81.01325
pressure[innode_8] 8.0351663695553043e+01
pressure[source_1] 81.01325
pressure[source_2] 81.01325
pressure[source_3] 81.01325
pressure[sink_1] 4.4388310901424660e+01
pressure[sink_2] 74.6643630878267
pressure[sink_3] 8.0351663695553043e+01
pressure[sink_4] 58.7343599684518
pressure[sink_5] 5.6618912654501571e+01
pressure[sink_6] 4.6489388511812031e+01
pressure[sink_7] 4.5751333416041994e+01
pressure[sink_8] 5.8185535044004510e+01
pressure[sink_9] 5.3547490125732686e+01
pressure[sink_10] 7.4447640686993338e+01
pressure[sink_11] 74.2959393793898
pressure[sink_12] 1.0132500000000002e+00
pressure[sink_13] 7.3865816089409577e+01
pressure[sink_14] 7.3858827206042974e+01
pressure[sink_15] 74.4871343095378
pressure[sink_16] 7.3274289544572113e+01
pressure[sink_17] 5.7837179859856320e+01
pressure[sink_18] 4.9235169082610248e+01
pressure[sink_19] 7.7858719212482271e+01
pressure[sink_20] 5.9968545514675718e+01
pressure[sink_21] 2.6863925141884839e+00
pressure[sink_22] 4.5452080043779667e+01
pressure[sink_23] 8.0186945683893256e+01
pressure[sink_24] 2.9195673069241934e+00
pressure[sink_25] 7.3977503193864337e+01
pressure[sink_26] 6.1659615096261895e+01
pressure[sink_27] 8.0866291377726043e+01
pressure[sink_28] 7.6158452314652934e+01
pressure[sink_29] 7.6453734588270123e+01
interdiction[source_1,sink_3] 0
interdiction[innode_1,sink_16] 0
interdiction[innode_6,sink_13] 0
interdiction[sink_13,sink_14] 0
interdiction[sink_14,sink_10] 0
interdiction[sink_25,sink_26] 0
interdiction[sink_26,sink_9] 0
interdiction[sink_9,sink_18] 0
interdiction[sink_26,sink_4] 0
interdiction[sink_4,sink_20] 0
interdiction[sink_18,sink_6] 0
interdiction[sink_25,innode_8] 0
interdiction[sink_6,sink_7] 0
interdiction[sink_6,sink_22] 0
interdiction[sink_7,sink_24] 0
interdiction[sink_22,sink_1] 0
interdiction[sink_24,sink_21] 0
interdiction[sink_21,sink_12] 0
interdiction[sink_7,sink_5] 1
interdiction[sink_5,sink_17] 0
interdiction[sink_17,sink_4] 0
interdiction[sink_17,sink_8] 0
interdiction[sink_3,sink_23] 0
interdiction[sink_8,sink_20] 0
interdiction[sink_25,sink_20] 0
interdiction[sink_25,sink_15] 0
interdiction[sink_15,sink_29] 0
interdiction[sink_29,sink_28] 0
interdiction[sink_29,sink_2] 0
interdiction[sink_2,sink_15] 0
interdiction[sink_29,innode_7] 0
interdiction[innode_4,sink_19] 0
interdiction[sink_19,innode_3] 0
interdiction[innode_4,innode_5] 0
interdiction[sink_27,innode_5] 0
interdiction[sink_27,sink_19] 1
interdiction[sink_10,sink_11] 0
interdiction[sink_10,innode_2] 1
interdiction[sink_10,innode_3] 0
interdiction[innode_6,sink_25] 0
interdiction[sink_11,innode_1] 0
interdiction[sink_19,innode_2] 0
interdiction[source_3,innode_4] 0
interdiction[source_2,innode_7] 0
interdiction[sink_3,innode_8] 0
WCcheckFlow[source_1,sink_3] 39
WCcheckFlow[innode_1,sink_16] 1
WCcheckFlow[innode_6,sink_13] 13
WCcheckFlow[sink_13,sink_14] 12
WCcheckFlow[sink_14,sink_10] 11
WCcheckFlow[sink_25,sink_26] 15
WCcheckFlow[sink_26,sink_9] 9
WCcheckFlow[sink_9,sink_18] 8
WCcheckFlow[sink_26,sink_4] 5
WCcheckFlow[sink_4,sink_20] 1
WCcheckFlow[sink_18,sink_6] 7
WCcheckFlow[sink_25,innode_8] -36
WCcheckFlow[sink_6,sink_7] 4
WCcheckFlow[sink_6,sink_22] 2
WCcheckFlow[sink_7,sink_24] 3
WCcheckFlow[sink_22,sink_1] 1
WCcheckFlow[sink_24,sink_21] 2
WCcheckFlow[sink_21,sink_12] 1
WCcheckFlow[sink_7,sink_5] 0
WCcheckFlow[sink_5,sink_17] -1
WCcheckFlow[sink_17,sink_4] -3
WCcheckFlow[sink_17,sink_8] 1
WCcheckFlow[sink_3,sink_23] 1
WCcheckFlow[sink_8,sink_20] 0
WCcheckFlow[sink_25,sink_20] 0
WCcheckFlow[sink_25,sink_15] 6
WCcheckFlow[sink_15,sink_29] 5
WCcheckFlow[sink_29,sink_28] 1
WCcheckFlow[sink_29,sink_2] 1
WCcheckFlow[sink_2,sink_15] 0
WCcheckFlow[sink_29,innode_7] 2
WCcheckFlow[innode_4,sink_19] -4
WCcheckFlow[sink_19,innode_3] -6
WCcheckFlow[innode_4,innode_5] 2
WCcheckFlow[sink_27,innode_5] -1
WCcheckFlow[sink_27,sink_19] 0
WCcheckFlow[sink_10,sink_11] 3
WCcheckFlow[sink_10,innode_2] 0
WCcheckFlow[sink_10,innode_3] 7
WCcheckFlow[innode_6,sink_25] -14
WCcheckFlow[sink_11,innode_1] 2
WCcheckFlow[sink_19,innode_2] 1
WCcheckFlow[source_3,innode_4] -1
WCcheckFlow[source_2,innode_7] -1
WCcheckFlow[sink_3,innode_8] 37
